%%% static parameters %%%
timespan = 1;
Fact = [4];
Distr1 = [15];
Distr2 = [30];
Clients_N = [300];
Demand_W = [15];
Lt0 = [4];
Lt1 = [4];
SS_ = [0.85];
DS_D = [8];
K = [200];
MA = [500];
%%% dynamic parameters %%%
lost_ratio_sales_ret_th = 0.2216654210652511;
lost_ratio_sales_ret_w = 10;
lost_ratio_sales_dis_th = 0.24785421436592503;
lost_ratio_sales_dis_w = 31;
lost_ratio_sales_fac_th = 0.2973065665835771;
lost_ratio_sales_fac_w = 50;
stock_customer_MA_mean_relative_th = 0.7804651528810557;
stock_customer_MA_mean_relative_w = 45;
stock_distributor_MA_mean_relative_th = 0.5646467986942024;
stock_distributor_MA_mean_relative_w = 60;
stock_retailer_MA_mean_relative_th = 0.09127998139244498;
stock_retailer_MA_mean_relative_w = 97;
stock_factory_MA_mean_relative_th = 0.5243033484017804;
stock_factory_MA_mean_relative_w = 75;
